100
32
12
20
28
6
10
15
29
8
22
26
11
20
27
15
32
19
14
17
29
17
10
29
20
25
17
28
20
9
19
27
16
8
13
13
30
25
13
8
32
29
23
24
17
10
14
28
10
17
27
30
8
3
29
6
13
9
14
6
24
30
13
20
17
32
23
15
4
20
19
18
20
20
27
23
6
12
10
3
12
28
12
30
16
1
21
30
17
30
12
6
5
10
10
8
3
1
21
4
21
1